l = 4;
u = 8;
m = 120;

NEGOTIATOR = { D, N1, N2, N3, N4, N5, N6, N7, N8, N9, N10, N11, N12, N13, N14 };
dummy = D;

honor = [ 0, 10, 8, 6, 3, 5, 7, 3, 8, 6, 11, 8, 8, 8, 8 ]; 

joint = [| 0, 0, 0, 0, 0, 0, 0, 0, 0, 0, 0, 0, 0, 0, 0
         | 0, 4, 7, 8, 4, 2, 9, 7, 6, 3, 2, 1, 1, 1, 1
         | 0, 7, 9, 3, 1, 8, 6, 6, 8, 8, 8, 2, 2, 2, 2
         | 0, 8, 3, 5, 2, 9, 2, 9, 5, 4, 3, 3, 3, 3, 3
         | 0, 4, 1, 2, 8, 2, 4, 1, 1, 5, 2, 4, 4, 4, 4
         | 0, 2, 8, 9, 2, 7, 2, 5, 7, 4, 8, 5, 5, 5, 5
         | 0, 9, 6, 2, 4, 2, 1, 9, 6, 2, 9, 6, 6, 6, 6
         | 0, 7, 6, 9, 1, 5, 9, 4, 7, 1, 4, 7, 7, 7, 7
         | 0, 6, 8, 5, 1, 7, 6, 7, 4, 1, 5, 8, 8, 8, 8
         | 0, 3, 8, 4, 5, 4, 2, 1, 1, 6, 6, 9, 9, 9, 9
         | 0, 2, 8, 3, 2, 8, 9, 4, 5, 6, 1, 8, 8, 8, 8
         | 0, 1, 2, 3, 4, 5, 6, 7, 8, 9, 8, 1, 1, 1, 1
         | 0, 1, 2, 3, 4, 5, 6, 7, 8, 9, 8, 1, 1, 1, 1
         | 0, 1, 2, 3, 4, 5, 6, 7, 8, 9, 8, 1, 1, 1, 1
         | 0, 1, 2, 3, 4, 5, 6, 7, 8, 9, 8, 1, 1, 1, 1 |]; 
